data/instances/vrp_files/train_51.vrp
NAME : 51
COMMENT : Generated instance No. 51
TYPE : CVRP
DIMENSION : 21
EDGE_WEIGHT_TYPE : EUC_2D
CAPACITY : 30
NODE_COORD_SECTION
 1 961 714
 2 159 180
 3 98 803
 4 122 125
 5 850 344
 6 30 51
 7 142 213
 8 665 157
 9 118 764
 10 671 435
 11 549 311
 12 482 506
 13 387 906
 14 16 782
 15 124 797
 16 615 843
 17 97 558
 18 501 706
 19 534 540
 20 429 308
 21 482 118
DEMAND_SECTION
1 0
2 3
3 10
4 9
5 4
6 4
7 7
8 2
9 8
10 6
11 3
12 9
13 5
14 8
15 7
16 8
17 7
18 3
19 2
20 7
21 3
DEPOT_SECTION
 1
 -1
EOF